(set-logic LIA)

(declare-const z Int)
(declare-const z! Int)
(declare-const y Int)
(declare-const y! Int)
(declare-const x Int)
(declare-const x! Int)

(declare-const z_0 Int)
(declare-const y_25 Int)
(declare-const y_19 Int)
(declare-const y_0 Int)
(declare-const x_24 Int)
(declare-const x_18 Int)
(declare-const x_17 Int)

(define-fun inv-f((x Int)(y Int)(z Int)) Bool
